Problem:    
Rows:       256
Columns:    89 (72 integer, 72 binary)
Non-zeros:  960
Status:     INTEGER OPTIMAL
Objective:  value = 64.40254 (MINimum)

   No.   Row name        Activity     Lower bound   Upper bound
------ ------------    ------------- ------------- -------------
     1 r.5                    1064.4             0               
     2 r.6                  -969.537      -984.891               
     3 r.7                   64.4025             0               
     4 r.8                   30.4626      -988.679               
     5 r.9                   64.4025             0               
     6 r.10                  42.9626       -984.19               
     7 r.11                   1064.4             0               
     8 r.12                 -957.037      -988.163               
     9 r.13                  64.4025             0               
    10 r.14                  42.9626      -972.141               
    11 r.15                   1064.4             0               
    12 r.16                 -968.875      -981.682               
    13 r.17                  64.4025             0               
    14 r.18                 -984.348      -985.662               
    15 r.19                   1064.4             0               
    16 r.20                 -987.193      -989.935               
    17 r.21                   1064.4             0               
    18 r.22                 -984.918      -986.232               
    19 r.23                  64.4025             0               
    20 r.24                  31.0125      -990.744               
    21 r.25                   1064.4             0               
    22 r.26                 -999.502      -999.501               
    23 r.27                  64.4025             0               
    24 r.28                 -995.114      -995.114               
    25 r.29                   1064.4             0               
    26 r.30                 -935.597       -966.06               
    27 r.31                  64.4025             0               
    28 r.32                  64.4025      -978.595               
    29 r.33                  64.4025             0               
    30 r.34                  64.4025      -966.047               
    31 r.35                   1064.4             0               
    32 r.36                 -935.597       -978.56               
    33 r.37                        1             1             = 
    34 r.38                        1             1             = 
    35 r.39                        1             1             = 
    36 r.40                        1             1             = 
    37 r.41                        1             1             = 
    38 r.42                        1             1             = 
    39 r.43                        1             1             = 
    40 r.44                        1             1             = 
    41 r.45                     1001             2               
    42 r.46                    -1001         -1001               
    43 r.47                   2012.5       -984.19               
    44 r.48                     1001             2               
    45 r.49                    -1001         -1001               
    46 r.50                   2012.5      -988.163               
    47 r.51                     1001             2               
    48 r.52                    -1001         -1001               
    49 r.53                   2012.5      -972.141               
    50 r.54                     1001             2               
    51 r.55                    -1001         -1001               
    52 r.56                  2000.66      -981.682               
    53 r.57                     1001             2               
    54 r.58                    -1001         -1001               
    55 r.59                  985.189      -985.662               
    56 r.60                     1001             2               
    57 r.61                    -1001         -1001               
    58 r.62                  1982.34      -989.935               
    59 r.63                        2             2               
    60 r.64                       -2         -1001               
    61 r.65                 -15.3804      -986.232               
    62 r.66                     1000             2               
    63 r.67                    -1000         -1001               
    64 r.68                  2000.55      -990.744               
    65 r.69                 -970.851      -984.891               
    66 r.70                  29.1487      -988.679               
    67 r.71                  27.2265      -984.891               
    68 r.72                  1027.23      -988.679               
    69 r.73                  -966.06       -966.06               
    70 r.74                    33.94      -978.595               
    71 r.75                  -966.06       -966.06               
    72 r.76                    33.94      -978.595               
    73 r.77                     1001             2               
    74 r.78                    -1001         -1001               
    75 r.79                  2033.94      -966.047               
    76 r.80                     1001             2               
    77 r.81                    -1001         -1001               
    78 r.82                  2033.94       -978.56               
    79 r.83                     1001             2               
    80 r.84                    -1001         -1001               
    81 r.85                   1987.5       15.1086               
    82 r.86                     1001             2               
    83 r.87                    -1001         -1001               
    84 r.88                   1987.5       11.3208               
    85 r.89                     1000             2               
    86 r.90                    -1000         -1001               
    87 r.91                     2000      -972.141               
    88 r.92                        2             2               
    89 r.93                       -2         -1001               
    90 r.94                 -11.8372      -981.682               
    91 r.95                     1000             2               
    92 r.96                    -1000         -1001               
    93 r.97                  972.689      -985.662               
    94 r.98                        2             2               
    95 r.99                       -2         -1001               
    96 r.100                -30.1555      -989.935               
    97 r.101                    1001             2               
    98 r.102                   -1001         -1001               
    99 r.103                 1972.12      -986.232               
   100 r.104                    1001             2               
   101 r.105                   -1001         -1001               
   102 r.106                 1988.05      -990.744               
   103 r.107                 41.6487       -984.19               
   104 r.108                -958.351      -988.163               
   105 r.109                 1039.73       -984.19               
   106 r.110                 39.7265      -988.163               
   107 r.111                    1001             2               
   108 r.112                   -1001         -1001               
   109 r.113                 2021.44       -966.06               
   110 r.114                    1001             2               
   111 r.115                   -1001         -1001               
   112 r.116                 2021.44      -978.595               
   113 r.117                 21.4399      -966.047               
   114 r.118                 -978.56       -978.56               
   115 r.119                 21.4399      -966.047               
   116 r.120                 -978.56       -978.56               
   117 r.121                    1001             2               
   118 r.122                   -1001         -1001               
   119 r.123                  1987.5       15.1086               
   120 r.124                    1001             2               
   121 r.125                   -1001         -1001               
   122 r.126                 1999.34       11.3208               
   123 r.127                    1000             2               
   124 r.128                   -1000         -1001               
   125 r.129                    2000       15.8103               
   126 r.130                       2             2               
   127 r.131                      -2         -1001               
   128 r.132                 11.8372       11.8372               
   129 r.133                 1027.31      -972.141               
   130 r.134                 15.4735      -981.682               
   131 r.135                 30.1555      -972.141               
   132 r.136                -981.682      -981.682               
   133 r.137                    1001             2               
   134 r.138                   -1001         -1001               
   135 r.139                 1972.12      -986.232               
   136 r.140                    1001             2               
   137 r.141                   -1001         -1001               
   138 r.142                 1999.89      -990.744               
   139 r.143                 41.6487      -972.141               
   140 r.144                -970.189      -981.682               
   141 r.145                 1039.73      -972.141               
   142 r.146                 27.8893      -981.682               
   143 r.147                    1001             2               
   144 r.148                   -1001         -1001               
   145 r.149                 2021.44       -966.06               
   146 r.150                    1001             2               
   147 r.151                   -1001         -1001               
   148 r.152                 2033.28      -978.595               
   149 r.153                 21.4399      -966.047               
   150 r.154                 -978.56       -978.56               
   151 r.155                 33.2771      -966.047               
   152 r.156                -966.723       -978.56               
   153 r.157                    1001             2               
   154 r.158                   -1001         -1001               
   155 r.159                 3014.81       15.1086               
   156 r.160                    1001             2               
   157 r.161                   -1001         -1001               
   158 r.162                 2017.66       11.3208               
   159 r.163                    1000             2               
   160 r.164                   -1000         -1001               
   161 r.165                 3027.31       15.8103               
   162 r.166                       2             2               
   163 r.167                      -2         -1001               
   164 r.168                 30.1555       11.8372               
   165 r.169                    1001             2               
   166 r.170                   -1001         -1001               
   167 r.171                 2999.43      -986.232               
   168 r.172                    1001             2               
   169 r.173                   -1001         -1001               
   170 r.174                 2018.21      -990.744               
   171 r.175                -985.662      -985.662               
   172 r.176                -988.507      -989.935               
   173 r.177                 12.4158      -985.662               
   174 r.178                 9.57108      -989.935               
   175 r.179                    1001             2               
   176 r.180                   -1001         -1001               
   177 r.181                 3048.75       -966.06               
   178 r.182                    1001             2               
   179 r.183                   -1001         -1001               
   180 r.184                  2051.6      -978.595               
   181 r.185                 1048.75      -966.047               
   182 r.186                 48.7506       -978.56               
   183 r.187                 51.5954      -966.047               
   184 r.188                -948.405       -978.56               
   185 r.189                       2             2               
   186 r.190                      -2         -1001               
   187 r.191                 15.1086       15.1086               
   188 r.192                    1000             2               
   189 r.193                   -1000         -1001               
   190 r.194                    2000       11.3208               
   191 r.195                    1001             2               
   192 r.196                   -1001         -1001               
   193 r.197                 2027.61       15.8103               
   194 r.198                    1001             2               
   195 r.199                   -1001         -1001               
   196 r.200                  2012.5       11.8372               
   197 r.201                    1001             2               
   198 r.202                   -1001         -1001               
   199 r.203                 2027.61       27.8593               
   200 r.204                    1001             2               
   201 r.205                   -1001         -1001               
   202 r.206                 2000.66       18.3182               
   203 r.207                    1001             2               
   204 r.208                   -1001         -1001               
   205 r.209                  1000.3        14.338               
   206 r.210                    1001             2               
   207 r.211                   -1001         -1001               
   208 r.212                 1982.34       10.0649               
   209 r.213                -986.232      -986.232               
   210 r.214                 29.6986      -990.744               
   211 r.215                 11.8461      -986.232               
   212 r.216                 1027.78      -990.744               
   213 r.217                -950.951       -966.06               
   214 r.218                 49.0485      -978.595               
   215 r.219                 -966.06       -966.06               
   216 r.220                   33.94      -978.595               
   217 r.221                 49.0485      -966.047               
   218 r.222                -950.951       -978.56               
   219 r.223                   33.94      -966.047               
   220 r.224                 -966.06       -978.56               
   221 r.225                    1001             2               
   222 r.226                   -1001         -1001               
   223 r.227                 1978.56       15.8103               
   224 r.228                    1001             2               
   225 r.229                   -1001         -1001               
   226 r.230                 1978.56       11.8372               
   227 r.231                    1001             2               
   228 r.232                   -1001         -1001               
   229 r.233                 1978.56       27.8593               
   230 r.234                    1001             2               
   231 r.235                   -1001         -1001               
   232 r.236                 1966.72       18.3182               
   233 r.237                    1001             2               
   234 r.238                   -1001         -1001               
   235 r.239                 951.249        14.338               
   236 r.240                    1001             2               
   237 r.241                   -1001         -1001               
   238 r.242                  1948.4       10.0649               
   239 r.243                    1001             2               
   240 r.244                   -1001         -1001               
   241 r.245                    2000      -966.047               
   242 r.246                    1001             2               
   243 r.247                   -1001         -1001               
   244 r.248                    2000       -978.56               
   245 r.249                    1001             2               
   246 r.250                   -1001         -1001               
   247 r.251                 1966.06       15.1086               
   248 r.252                    1001             2               
   249 r.253                   -1001         -1001               
   250 r.254                 1966.06       11.3208               
   251 r.255                    1001             2               
   252 r.256                   -1001         -1001               
   253 r.257                    2000         33.94               
   254 r.258                    1001             2               
   255 r.259                   -1001         -1001               
   256 r.260                    2000       21.4049               

   No. Column name       Activity     Lower bound   Upper bound
------ ------------    ------------- ------------- -------------
     1 tt                    64.4025             0               
     2 s_1_1        *              1             0             1 
     3 t_1_1                   33.94             0               
     4 s_1_7        *              1             0             1 
     5 s_2_1        *              0             0             1 
     6 t_2_1                   33.94             0               
     7 s_2_7        *              0             0             1 
     8 s_1_2        *              0             0             1 
     9 t_1_2                 21.4399             0               
    10 s_1_8        *              0             0             1 
    11 s_2_2        *              1             0             1 
    12 t_2_2                 21.4399             0               
    13 s_2_8        *              1             0             1 
    14 s_1_3        *              0             0             1 
    15 t_1_3                 21.4399             0               
    16 s_2_3        *              1             0             1 
    17 t_2_3                 33.2771             0               
    18 s_1_4        *              0             0             1 
    19 t_1_4                 1048.75             0               
    20 s_2_4        *              1             0             1 
    21 t_2_4                 51.5954             0               
    22 s_1_5        *              1             0             1 
    23 t_1_5                 49.0485             0               
    24 s_2_5        *              0             0             1 
    25 t_2_5                   33.94             0               
    26 s_1_6        *              1             0             1 
    27 t_1_6                 63.0886             0               
    28 s_2_6        *              0             0             1 
    29 t_2_6                 1061.17             0               
    30 t_1_7                       0             0               
    31 t_2_7                       0             0               
    32 t_1_8                       0             0               
    33 t_2_8                       0             0               
    34 r_1_1_2      *              1             0             1 
    35 u_1_1_2      *              0             0             1 
    36 r_2_1_2      *              1             0             1 
    37 u_2_1_2      *              0             0             1 
    38 r_1_1_3      *              1             0             1 
    39 u_1_1_3      *              0             0             1 
    40 r_2_1_3      *              1             0             1 
    41 u_2_1_3      *              0             0             1 
    42 r_1_1_4      *              1             0             1 
    43 u_1_1_4      *              0             0             1 
    44 r_2_1_4      *              1             0             1 
    45 u_2_1_4      *              0             0             1 
    46 r_1_1_5      *              0             0             1 
    47 u_1_1_5      *              0             0             1 
    48 r_2_1_5      *              1             0             1 
    49 u_2_1_5      *              0             0             1 
    50 r_1_1_8      *              1             0             1 
    51 u_1_1_8      *              0             0             1 
    52 r_2_1_8      *              1             0             1 
    53 u_2_1_8      *              0             0             1 
    54 r_1_2_3      *              1             0             1 
    55 u_1_2_3      *              0             0             1 
    56 r_2_2_3      *              0             0             1 
    57 u_2_2_3      *              0             0             1 
    58 r_1_2_4      *              1             0             1 
    59 u_1_2_4      *              0             0             1 
    60 r_2_2_4      *              0             0             1 
    61 u_2_2_4      *              0             0             1 
    62 r_1_2_5      *              1             0             1 
    63 u_1_2_5      *              0             0             1 
    64 r_2_2_5      *              1             0             1 
    65 u_2_2_5      *              0             0             1 
    66 r_1_2_7      *              1             0             1 
    67 u_1_2_7      *              0             0             1 
    68 r_2_2_7      *              1             0             1 
    69 u_2_2_7      *              0             0             1 
    70 r_1_3_5      *              1             0             1 
    71 u_1_3_5      *              0             0             1 
    72 r_2_3_5      *              1             0             1 
    73 u_2_3_5      *              0             0             1 
    74 r_1_3_7      *              1             0             1 
    75 u_1_3_7      *              0             0             1 
    76 r_2_3_7      *              1             0             1 
    77 u_2_3_7      *              0             0             1 
    78 r_1_4_5      *              1             0             1 
    79 u_1_4_5      *              0             0             1 
    80 r_2_4_5      *              1             0             1 
    81 u_2_4_5      *              0             0             1 
    82 r_1_4_7      *              1             0             1 
    83 u_1_4_7      *              0             0             1 
    84 r_2_4_7      *              1             0             1 
    85 u_2_4_7      *              0             0             1 
    86 r_1_7_8      *              1             0             1 
    87 u_1_7_8      *              0             0             1 
    88 r_2_7_8      *              1             0             1 
    89 u_2_7_8      *              0             0             1 

Integer feasibility conditions:

KKT.PE: max.abs.err = 4.55e-13 on row 167
        max.rel.err = 1.08e-16 on row 129
        High quality

KKT.PB: max.abs.err = 1.14e-13 on row 22
        max.rel.err = 1.14e-16 on row 24
        High quality

End of output
